p cnf 284 1154
-2 0
-3 0
-4 0
-5 0
1 0
31 6 0
-31 -6 0
-6 190 0
-7 191 0
-190 191 0
-190 -7 0
-8 192 0
-191 192 0
-191 -8 0
-9 193 0
-192 193 0
-192 -9 0
-193 -10 0
-6 1 11 0
-6 1 36 0
-6 11 36 0
-7 2 12 0
-7 2 37 0
-7 12 37 0
-8 3 13 0
-8 3 38 0
-8 13 38 0
-9 4 14 0
-9 4 39 0
-9 14 39 0
-10 5 15 0
-10 5 40 0
-10 15 40 0
-6 -1 -11 -36 0
-7 -2 -12 -37 0
-8 -3 -13 -38 0
-9 -4 -14 -39 0
-10 -5 -15 -40 0
-11 194 0
-12 195 0
-194 195 0
-194 -12 0
-13 196 0
-195 196 0
-195 -13 0
-14 197 0
-196 197 0
-196 -14 0
-197 -15 0
-11 6 16 0
-11 6 41 0
-11 16 41 0
-12 7 17 0
-12 7 42 0
-12 17 42 0
-13 8 18 0
-13 8 43 0
-13 18 43 0
-14 9 19 0
-14 9 44 0
-14 19 44 0
-15 10 20 0
-15 10 45 0
-15 20 45 0
-11 -6 -16 -41 0
-12 -7 -17 -42 0
-13 -8 -18 -43 0
-14 -9 -19 -44 0
-15 -10 -20 -45 0
-16 198 0
-17 199 0
-198 199 0
-198 -17 0
-18 200 0
-199 200 0
-199 -18 0
-19 201 0
-200 201 0
-200 -19 0
-201 -20 0
-16 11 21 0
-16 11 46 0
-16 21 46 0
-17 12 22 0
-17 12 47 0
-17 22 47 0
-18 13 23 0
-18 13 48 0
-18 23 48 0
-19 14 24 0
-19 14 49 0
-19 24 49 0
-20 15 25 0
-20 15 50 0
-20 25 50 0
-16 -11 -21 -46 0
-17 -12 -22 -47 0
-18 -13 -23 -48 0
-19 -14 -24 -49 0
-20 -15 -25 -50 0
-21 202 0
-22 203 0
-202 203 0
-202 -22 0
-23 204 0
-203 204 0
-203 -23 0
-24 205 0
-204 205 0
-204 -24 0
-205 -25 0
-21 16 26 0
-21 16 51 0
-21 26 51 0
-22 17 27 0
-22 17 52 0
-22 27 52 0
-23 18 28 0
-23 18 53 0
-23 28 53 0
-24 19 29 0
-24 19 54 0
-24 29 54 0
-25 20 30 0
-25 20 55 0
-25 30 55 0
-21 -16 -26 -51 0
-22 -17 -27 -52 0
-23 -18 -28 -53 0
-24 -19 -29 -54 0
-25 -20 -30 -55 0
-26 0
-27 0
-29 0
-30 0
28 0
58 23 0
-58 -23 0
-31 210 0
-32 211 0
-210 211 0
-210 -32 0
-33 212 0
-211 212 0
-211 -33 0
-34 213 0
-212 213 0
-212 -34 0
-213 -35 0
-31 61 36 0
-31 61 1 0
-31 36 1 0
-32 62 37 0
-32 62 2 0
-32 37 2 0
-33 63 38 0
-33 63 3 0
-33 38 3 0
-34 64 39 0
-34 64 4 0
-34 39 4 0
-35 65 40 0
-35 65 5 0
-35 40 5 0
-31 -61 -36 -1 0
-32 -62 -37 -2 0
-33 -63 -38 -3 0
-34 -64 -39 -4 0
-35 -65 -40 -5 0
-36 214 0
-37 215 0
-214 215 0
-214 -37 0
-38 216 0
-215 216 0
-215 -38 0
-39 217 0
-216 217 0
-216 -39 0
-217 -40 0
-36 66 41 6 0
-36 66 41 31 0
-36 66 6 31 0
-36 41 6 31 0
-37 67 42 7 0
-37 67 42 32 0
-37 67 7 32 0
-37 42 7 32 0
-38 68 43 8 0
-38 68 43 33 0
-38 68 8 33 0
-38 43 8 33 0
-39 69 44 9 0
-39 69 44 34 0
-39 69 9 34 0
-39 44 9 34 0
-40 70 45 10 0
-40 70 45 35 0
-40 70 10 35 0
-40 45 10 35 0
-36 -66 -41 -6 0
-36 -66 -41 -31 0
-36 -66 -6 -31 0
-36 -41 -6 -31 0
-37 -67 -42 -7 0
-37 -67 -42 -32 0
-37 -67 -7 -32 0
-37 -42 -7 -32 0
-38 -68 -43 -8 0
-38 -68 -43 -33 0
-38 -68 -8 -33 0
-38 -43 -8 -33 0
-39 -69 -44 -9 0
-39 -69 -44 -34 0
-39 -69 -9 -34 0
-39 -44 -9 -34 0
-40 -70 -45 -10 0
-40 -70 -45 -35 0
-40 -70 -10 -35 0
-40 -45 -10 -35 0
-41 218 0
-42 219 0
-218 219 0
-218 -42 0
-43 220 0
-219 220 0
-219 -43 0
-44 221 0
-220 221 0
-220 -44 0
-221 -45 0
-41 71 46 11 0
-41 71 46 36 0
-41 71 11 36 0
-41 46 11 36 0
-42 72 47 12 0
-42 72 47 37 0
-42 72 12 37 0
-42 47 12 37 0
-43 73 48 13 0
-43 73 48 38 0
-43 73 13 38 0
-43 48 13 38 0
-44 74 49 14 0
-44 74 49 39 0
-44 74 14 39 0
-44 49 14 39 0
-45 75 50 15 0
-45 75 50 40 0
-45 75 15 40 0
-45 50 15 40 0
-41 -71 -46 -11 0
-41 -71 -46 -36 0
-41 -71 -11 -36 0
-41 -46 -11 -36 0
-42 -72 -47 -12 0
-42 -72 -47 -37 0
-42 -72 -12 -37 0
-42 -47 -12 -37 0
-43 -73 -48 -13 0
-43 -73 -48 -38 0
-43 -73 -13 -38 0
-43 -48 -13 -38 0
-44 -74 -49 -14 0
-44 -74 -49 -39 0
-44 -74 -14 -39 0
-44 -49 -14 -39 0
-45 -75 -50 -15 0
-45 -75 -50 -40 0
-45 -75 -15 -40 0
-45 -50 -15 -40 0
-46 0
-48 0
-49 0
-50 0
47 0
77 52 17 42 0
-77 -52 0
-77 -17 0
-77 -42 0
-52 -17 0
-52 -42 0
-17 -42 0
-51 226 0
-52 227 0
-226 227 0
-226 -52 0
-53 228 0
-227 228 0
-227 -53 0
-54 229 0
-228 229 0
-228 -54 0
-229 -55 0
-51 81 56 21 0
-51 81 56 46 0
-51 81 21 46 0
-51 56 21 46 0
-52 82 57 22 0
-52 82 57 47 0
-52 82 22 47 0
-52 57 22 47 0
-53 83 58 23 0
-53 83 58 48 0
-53 83 23 48 0
-53 58 23 48 0
-54 84 59 24 0
-54 84 59 49 0
-54 84 24 49 0
-54 59 24 49 0
-55 85 60 25 0
-55 85 60 50 0
-55 85 25 50 0
-55 60 25 50 0
-51 -81 -56 -21 0
-51 -81 -56 -46 0
-51 -81 -21 -46 0
-51 -56 -21 -46 0
-52 -82 -57 -22 0
-52 -82 -57 -47 0
-52 -82 -22 -47 0
-52 -57 -22 -47 0
-53 -83 -58 -23 0
-53 -83 -58 -48 0
-53 -83 -23 -48 0
-53 -58 -23 -48 0
-54 -84 -59 -24 0
-54 -84 -59 -49 0
-54 -84 -24 -49 0
-54 -59 -24 -49 0
-55 -85 -60 -25 0
-55 -85 -60 -50 0
-55 -85 -25 -50 0
-55 -60 -25 -50 0
-56 230 0
-57 231 0
-230 231 0
-230 -57 0
-58 232 0
-231 232 0
-231 -58 0
-59 233 0
-232 233 0
-232 -59 0
-233 -60 0
-56 86 51 0
-56 86 26 0
-56 51 26 0
-57 87 52 0
-57 87 27 0
-57 52 27 0
-58 88 53 0
-58 88 28 0
-58 53 28 0
-59 89 54 0
-59 89 29 0
-59 54 29 0
-60 90 55 0
-60 90 30 0
-60 55 30 0
-56 -86 -51 -26 0
-57 -87 -52 -27 0
-58 -88 -53 -28 0
-59 -89 -54 -29 0
-60 -90 -55 -30 0
-61 234 0
-62 235 0
-234 235 0
-234 -62 0
-63 236 0
-235 236 0
-235 -63 0
-64 237 0
-236 237 0
-236 -64 0
-237 -65 0
-61 91 66 0
-61 91 31 0
-61 66 31 0
-62 92 67 0
-62 92 32 0
-62 67 32 0
-63 93 68 0
-63 93 33 0
-63 68 33 0
-64 94 69 0
-64 94 34 0
-64 69 34 0
-65 95 70 0
-65 95 35 0
-65 70 35 0
-61 -91 -66 -31 0
-62 -92 -67 -32 0
-63 -93 -68 -33 0
-64 -94 -69 -34 0
-65 -95 -70 -35 0
-66 238 0
-67 239 0
-238 239 0
-238 -67 0
-68 240 0
-239 240 0
-239 -68 0
-69 241 0
-240 241 0
-240 -69 0
-241 -70 0
-66 96 71 36 0
-66 96 71 61 0
-66 96 36 61 0
-66 71 36 61 0
-67 97 72 37 0
-67 97 72 62 0
-67 97 37 62 0
-67 72 37 62 0
-68 98 73 38 0
-68 98 73 63 0
-68 98 38 63 0
-68 73 38 63 0
-69 99 74 39 0
-69 99 74 64 0
-69 99 39 64 0
-69 74 39 64 0
-70 100 75 40 0
-70 100 75 65 0
-70 100 40 65 0
-70 75 40 65 0
-66 -96 -71 -36 0
-66 -96 -71 -61 0
-66 -96 -36 -61 0
-66 -71 -36 -61 0
-67 -97 -72 -37 0
-67 -97 -72 -62 0
-67 -97 -37 -62 0
-67 -72 -37 -62 0
-68 -98 -73 -38 0
-68 -98 -73 -63 0
-68 -98 -38 -63 0
-68 -73 -38 -63 0
-69 -99 -74 -39 0
-69 -99 -74 -64 0
-69 -99 -39 -64 0
-69 -74 -39 -64 0
-70 -100 -75 -40 0
-70 -100 -75 -65 0
-70 -100 -40 -65 0
-70 -75 -40 -65 0
-71 242 0
-72 243 0
-242 243 0
-242 -72 0
-73 244 0
-243 244 0
-243 -73 0
-74 245 0
-244 245 0
-244 -74 0
-245 -75 0
-71 101 76 41 0
-71 101 76 66 0
-71 101 41 66 0
-71 76 41 66 0
-72 102 77 42 0
-72 102 77 67 0
-72 102 42 67 0
-72 77 42 67 0
-73 103 78 43 0
-73 103 78 68 0
-73 103 43 68 0
-73 78 43 68 0
-74 104 79 44 0
-74 104 79 69 0
-74 104 44 69 0
-74 79 44 69 0
-75 105 80 45 0
-75 105 80 70 0
-75 105 45 70 0
-75 80 45 70 0
-71 -101 -76 -41 0
-71 -101 -76 -66 0
-71 -101 -41 -66 0
-71 -76 -41 -66 0
-72 -102 -77 -42 0
-72 -102 -77 -67 0
-72 -102 -42 -67 0
-72 -77 -42 -67 0
-73 -103 -78 -43 0
-73 -103 -78 -68 0
-73 -103 -43 -68 0
-73 -78 -43 -68 0
-74 -104 -79 -44 0
-74 -104 -79 -69 0
-74 -104 -44 -69 0
-74 -79 -44 -69 0
-75 -105 -80 -45 0
-75 -105 -80 -70 0
-75 -105 -45 -70 0
-75 -80 -45 -70 0
-76 246 0
-77 247 0
-246 247 0
-246 -77 0
-78 248 0
-247 248 0
-247 -78 0
-79 249 0
-248 249 0
-248 -79 0
-249 -80 0
-76 106 81 46 0
-76 106 81 71 0
-76 106 46 71 0
-76 81 46 71 0
-77 107 82 47 0
-77 107 82 72 0
-77 107 47 72 0
-77 82 47 72 0
-78 108 83 48 0
-78 108 83 73 0
-78 108 48 73 0
-78 83 48 73 0
-79 109 84 49 0
-79 109 84 74 0
-79 109 49 74 0
-79 84 49 74 0
-80 110 85 50 0
-80 110 85 75 0
-80 110 50 75 0
-80 85 50 75 0
-76 -106 -81 -46 0
-76 -106 -81 -71 0
-76 -106 -46 -71 0
-76 -81 -46 -71 0
-77 -107 -82 -47 0
-77 -107 -82 -72 0
-77 -107 -47 -72 0
-77 -82 -47 -72 0
-78 -108 -83 -48 0
-78 -108 -83 -73 0
-78 -108 -48 -73 0
-78 -83 -48 -73 0
-79 -109 -84 -49 0
-79 -109 -84 -74 0
-79 -109 -49 -74 0
-79 -84 -49 -74 0
-80 -110 -85 -50 0
-80 -110 -85 -75 0
-80 -110 -50 -75 0
-80 -85 -50 -75 0
-81 250 0
-82 251 0
-250 251 0
-250 -82 0
-83 252 0
-251 252 0
-251 -83 0
-84 253 0
-252 253 0
-252 -84 0
-253 -85 0
-81 111 86 51 0
-81 111 86 76 0
-81 111 51 76 0
-81 86 51 76 0
-82 112 87 52 0
-82 112 87 77 0
-82 112 52 77 0
-82 87 52 77 0
-83 113 88 53 0
-83 113 88 78 0
-83 113 53 78 0
-83 88 53 78 0
-84 114 89 54 0
-84 114 89 79 0
-84 114 54 79 0
-84 89 54 79 0
-85 115 90 55 0
-85 115 90 80 0
-85 115 55 80 0
-85 90 55 80 0
-81 -111 -86 -51 0
-81 -111 -86 -76 0
-81 -111 -51 -76 0
-81 -86 -51 -76 0
-82 -112 -87 -52 0
-82 -112 -87 -77 0
-82 -112 -52 -77 0
-82 -87 -52 -77 0
-83 -113 -88 -53 0
-83 -113 -88 -78 0
-83 -113 -53 -78 0
-83 -88 -53 -78 0
-84 -114 -89 -54 0
-84 -114 -89 -79 0
-84 -114 -54 -79 0
-84 -89 -54 -79 0
-85 -115 -90 -55 0
-85 -115 -90 -80 0
-85 -115 -55 -80 0
-85 -90 -55 -80 0
-86 254 0
-87 255 0
-254 255 0
-254 -87 0
-88 256 0
-255 256 0
-255 -88 0
-89 257 0
-256 257 0
-256 -89 0
-257 -90 0
-86 116 81 0
-86 116 56 0
-86 81 56 0
-87 117 82 0
-87 117 57 0
-87 82 57 0
-88 118 83 0
-88 118 58 0
-88 83 58 0
-89 119 84 0
-89 119 59 0
-89 84 59 0
-90 120 85 0
-90 120 60 0
-90 85 60 0
-86 -116 -81 -56 0
-87 -117 -82 -57 0
-88 -118 -83 -58 0
-89 -119 -84 -59 0
-90 -120 -85 -60 0
-91 258 0
-92 259 0
-258 259 0
-258 -92 0
-93 260 0
-259 260 0
-259 -93 0
-94 261 0
-260 261 0
-260 -94 0
-261 -95 0
-91 121 96 0
-91 121 61 0
-91 96 61 0
-92 122 97 0
-92 122 62 0
-92 97 62 0
-93 123 98 0
-93 123 63 0
-93 98 63 0
-94 124 99 0
-94 124 64 0
-94 99 64 0
-95 125 100 0
-95 125 65 0
-95 100 65 0
-91 -121 -96 -61 0
-92 -122 -97 -62 0
-93 -123 -98 -63 0
-94 -124 -99 -64 0
-95 -125 -100 -65 0
-96 262 0
-97 263 0
-262 263 0
-262 -97 0
-98 264 0
-263 264 0
-263 -98 0
-99 265 0
-264 265 0
-264 -99 0
-265 -100 0
-96 126 101 66 0
-96 126 101 91 0
-96 126 66 91 0
-96 101 66 91 0
-97 127 102 67 0
-97 127 102 92 0
-97 127 67 92 0
-97 102 67 92 0
-98 128 103 68 0
-98 128 103 93 0
-98 128 68 93 0
-98 103 68 93 0
-99 129 104 69 0
-99 129 104 94 0
-99 129 69 94 0
-99 104 69 94 0
-100 130 105 70 0
-100 130 105 95 0
-100 130 70 95 0
-100 105 70 95 0
-96 -126 -101 -66 0
-96 -126 -101 -91 0
-96 -126 -66 -91 0
-96 -101 -66 -91 0
-97 -127 -102 -67 0
-97 -127 -102 -92 0
-97 -127 -67 -92 0
-97 -102 -67 -92 0
-98 -128 -103 -68 0
-98 -128 -103 -93 0
-98 -128 -68 -93 0
-98 -103 -68 -93 0
-99 -129 -104 -69 0
-99 -129 -104 -94 0
-99 -129 -69 -94 0
-99 -104 -69 -94 0
-100 -130 -105 -70 0
-100 -130 -105 -95 0
-100 -130 -70 -95 0
-100 -105 -70 -95 0
-101 0
-102 0
-103 0
-104 0
105 0
135 110 75 100 0
-135 -110 0
-135 -75 0
-135 -100 0
-110 -75 0
-110 -100 0
-75 -100 0
-106 0
-107 0
-109 0
-110 0
108 0
138 113 78 103 0
-138 -113 0
-138 -78 0
-138 -103 0
-113 -78 0
-113 -103 0
-78 -103 0
-111 274 0
-112 275 0
-274 275 0
-274 -112 0
-113 276 0
-275 276 0
-275 -113 0
-114 277 0
-276 277 0
-276 -114 0
-277 -115 0
-111 141 116 81 0
-111 141 116 106 0
-111 141 81 106 0
-111 116 81 106 0
-112 142 117 82 0
-112 142 117 107 0
-112 142 82 107 0
-112 117 82 107 0
-113 143 118 83 0
-113 143 118 108 0
-113 143 83 108 0
-113 118 83 108 0
-114 144 119 84 0
-114 144 119 109 0
-114 144 84 109 0
-114 119 84 109 0
-115 145 120 85 0
-115 145 120 110 0
-115 145 85 110 0
-115 120 85 110 0
-111 -141 -116 -81 0
-111 -141 -116 -106 0
-111 -141 -81 -106 0
-111 -116 -81 -106 0
-112 -142 -117 -82 0
-112 -142 -117 -107 0
-112 -142 -82 -107 0
-112 -117 -82 -107 0
-113 -143 -118 -83 0
-113 -143 -118 -108 0
-113 -143 -83 -108 0
-113 -118 -83 -108 0
-114 -144 -119 -84 0
-114 -144 -119 -109 0
-114 -144 -84 -109 0
-114 -119 -84 -109 0
-115 -145 -120 -85 0
-115 -145 -120 -110 0
-115 -145 -85 -110 0
-115 -120 -85 -110 0
-116 278 0
-117 279 0
-278 279 0
-278 -117 0
-118 280 0
-279 280 0
-279 -118 0
-119 281 0
-280 281 0
-280 -119 0
-281 -120 0
-116 146 111 0
-116 146 86 0
-116 111 86 0
-117 147 112 0
-117 147 87 0
-117 112 87 0
-118 148 113 0
-118 148 88 0
-118 113 88 0
-119 149 114 0
-119 149 89 0
-119 114 89 0
-120 150 115 0
-120 150 90 0
-120 115 90 0
-116 -146 -111 -86 0
-117 -147 -112 -87 0
-118 -148 -113 -88 0
-119 -149 -114 -89 0
-120 -150 -115 -90 0
-121 0
-123 0
-124 0
-125 0
122 0
152 127 92 0
-152 -127 0
-152 -92 0
-127 -92 0
-126 286 0
-127 287 0
-286 287 0
-286 -127 0
-128 288 0
-287 288 0
-287 -128 0
-129 289 0
-288 289 0
-288 -129 0
-289 -130 0
-126 156 131 96 0
-126 156 131 121 0
-126 156 96 121 0
-126 131 96 121 0
-127 157 132 97 0
-127 157 132 122 0
-127 157 97 122 0
-127 132 97 122 0
-128 158 133 98 0
-128 158 133 123 0
-128 158 98 123 0
-128 133 98 123 0
-129 159 134 99 0
-129 159 134 124 0
-129 159 99 124 0
-129 134 99 124 0
-130 160 135 100 0
-130 160 135 125 0
-130 160 100 125 0
-130 135 100 125 0
-126 -156 -131 -96 0
-126 -156 -131 -121 0
-126 -156 -96 -121 0
-126 -131 -96 -121 0
-127 -157 -132 -97 0
-127 -157 -132 -122 0
-127 -157 -97 -122 0
-127 -132 -97 -122 0
-128 -158 -133 -98 0
-128 -158 -133 -123 0
-128 -158 -98 -123 0
-128 -133 -98 -123 0
-129 -159 -134 -99 0
-129 -159 -134 -124 0
-129 -159 -99 -124 0
-129 -134 -99 -124 0
-130 -160 -135 -100 0
-130 -160 -135 -125 0
-130 -160 -100 -125 0
-130 -135 -100 -125 0
-131 290 0
-132 291 0
-290 291 0
-290 -132 0
-133 292 0
-291 292 0
-291 -133 0
-134 293 0
-292 293 0
-292 -134 0
-293 -135 0
-131 161 136 101 0
-131 161 136 126 0
-131 161 101 126 0
-131 136 101 126 0
-132 162 137 102 0
-132 162 137 127 0
-132 162 102 127 0
-132 137 102 127 0
-133 163 138 103 0
-133 163 138 128 0
-133 163 103 128 0
-133 138 103 128 0
-134 164 139 104 0
-134 164 139 129 0
-134 164 104 129 0
-134 139 104 129 0
-135 165 140 105 0
-135 165 140 130 0
-135 165 105 130 0
-135 140 105 130 0
-131 -161 -136 -101 0
-131 -161 -136 -126 0
-131 -161 -101 -126 0
-131 -136 -101 -126 0
-132 -162 -137 -102 0
-132 -162 -137 -127 0
-132 -162 -102 -127 0
-132 -137 -102 -127 0
-133 -163 -138 -103 0
-133 -163 -138 -128 0
-133 -163 -103 -128 0
-133 -138 -103 -128 0
-134 -164 -139 -104 0
-134 -164 -139 -129 0
-134 -164 -104 -129 0
-134 -139 -104 -129 0
-135 -165 -140 -105 0
-135 -165 -140 -130 0
-135 -165 -105 -130 0
-135 -140 -105 -130 0
-136 0
-137 0
-138 0
-140 0
139 0
169 144 109 134 0
-169 -144 0
-169 -109 0
-169 -134 0
-144 -109 0
-144 -134 0
-109 -134 0
-141 298 0
-142 299 0
-298 299 0
-298 -142 0
-143 300 0
-299 300 0
-299 -143 0
-144 301 0
-300 301 0
-300 -144 0
-301 -145 0
-141 171 146 111 0
-141 171 146 136 0
-141 171 111 136 0
-141 146 111 136 0
-142 172 147 112 0
-142 172 147 137 0
-142 172 112 137 0
-142 147 112 137 0
-143 173 148 113 0
-143 173 148 138 0
-143 173 113 138 0
-143 148 113 138 0
-144 174 149 114 0
-144 174 149 139 0
-144 174 114 139 0
-144 149 114 139 0
-145 175 150 115 0
-145 175 150 140 0
-145 175 115 140 0
-145 150 115 140 0
-141 -171 -146 -111 0
-141 -171 -146 -136 0
-141 -171 -111 -136 0
-141 -146 -111 -136 0
-142 -172 -147 -112 0
-142 -172 -147 -137 0
-142 -172 -112 -137 0
-142 -147 -112 -137 0
-143 -173 -148 -113 0
-143 -173 -148 -138 0
-143 -173 -113 -138 0
-143 -148 -113 -138 0
-144 -174 -149 -114 0
-144 -174 -149 -139 0
-144 -174 -114 -139 0
-144 -149 -114 -139 0
-145 -175 -150 -115 0
-145 -175 -150 -140 0
-145 -175 -115 -140 0
-145 -150 -115 -140 0
-146 302 0
-147 303 0
-302 303 0
-302 -147 0
-148 304 0
-303 304 0
-303 -148 0
-149 305 0
-304 305 0
-304 -149 0
-305 -150 0
-146 176 141 0
-146 176 116 0
-146 141 116 0
-147 177 142 0
-147 177 117 0
-147 142 117 0
-148 178 143 0
-148 178 118 0
-148 143 118 0
-149 179 144 0
-149 179 119 0
-149 144 119 0
-150 180 145 0
-150 180 120 0
-150 145 120 0
-146 -176 -141 -116 0
-147 -177 -142 -117 0
-148 -178 -143 -118 0
-149 -179 -144 -119 0
-150 -180 -145 -120 0
-152 0
-153 0
-154 0
-155 0
151 0
121 156 0
-121 -156 0
-156 310 0
-157 311 0
-310 311 0
-310 -157 0
-158 312 0
-311 312 0
-311 -158 0
-159 313 0
-312 313 0
-312 -159 0
-313 -160 0
-156 126 161 0
-156 126 151 0
-156 161 151 0
-157 127 162 0
-157 127 152 0
-157 162 152 0
-158 128 163 0
-158 128 153 0
-158 163 153 0
-159 129 164 0
-159 129 154 0
-159 164 154 0
-160 130 165 0
-160 130 155 0
-160 165 155 0
-156 -126 -161 -151 0
-157 -127 -162 -152 0
-158 -128 -163 -153 0
-159 -129 -164 -154 0
-160 -130 -165 -155 0
-161 314 0
-162 315 0
-314 315 0
-314 -162 0
-163 316 0
-315 316 0
-315 -163 0
-164 317 0
-316 317 0
-316 -164 0
-317 -165 0
-161 131 166 0
-161 131 156 0
-161 166 156 0
-162 132 167 0
-162 132 157 0
-162 167 157 0
-163 133 168 0
-163 133 158 0
-163 168 158 0
-164 134 169 0
-164 134 159 0
-164 169 159 0
-165 135 170 0
-165 135 160 0
-165 170 160 0
-161 -131 -166 -156 0
-162 -132 -167 -157 0
-163 -133 -168 -158 0
-164 -134 -169 -159 0
-165 -135 -170 -160 0
-166 318 0
-167 319 0
-318 319 0
-318 -167 0
-168 320 0
-319 320 0
-319 -168 0
-169 321 0
-320 321 0
-320 -169 0
-321 -170 0
-166 136 171 0
-166 136 161 0
-166 171 161 0
-167 137 172 0
-167 137 162 0
-167 172 162 0
-168 138 173 0
-168 138 163 0
-168 173 163 0
-169 139 174 0
-169 139 164 0
-169 174 164 0
-170 140 175 0
-170 140 165 0
-170 175 165 0
-166 -136 -171 -161 0
-167 -137 -172 -162 0
-168 -138 -173 -163 0
-169 -139 -174 -164 0
-170 -140 -175 -165 0
-171 0
-172 0
-173 0
-174 0
175 0
145 180 170 0
-145 -180 0
-145 -170 0
-180 -170 0
-176 0
-177 0
-178 0
-180 0
179 0
149 174 0
-149 -174 0
31 36 41 51 56 0
61 66 71 76 81 86 0
91 96 111 116 0
126 131 141 146 0
62 67 72 77 82 87 0
92 97 112 117 0
7 37 67 97 127 157 0
12 42 72 132 162 0
33 38 43 53 58 0
63 68 73 78 83 88 0
23 53 83 113 143 0
24 54 84 114 144 0
130 135 145 150 0
20 80 170 0